60 61 7 63 99 98 52 46 39 11 78 42 13 68 40 55 5 95 41 36 91 85 4 93 87 1 77 92 45 22 14 89 2 34 51 94 8 38 62 20 88 16 9 17 79 25 75 23 18 27 65 83 82 66 33 31 15 32 28 21 97 24 6 50 84 80 59 35 90 71 57 12 48 73 44 72 81 56 74 70 64 49 58 37 19 54 67 29 3 10 26 69 30 0 43 96 86 76 47 53 

